(set-logic QF_UFLIAFS)

(declare-fun l1!16 () Int)
(declare-fun nul!17 () Int)
(declare-fun ths!18 () Int)
(declare-fun tmp171!24 () Bool)
(declare-fun tmp357!27 () Int)

(declare-fun list!19 () (Set Int))
(declare-fun listContent!23 () (Set Int))
(declare-fun listContent59!26 () (Set Int))
(declare-fun listContent73!22 () (Set Int))
(declare-fun objAlloc!20 () (Set Int))
(declare-fun objAlloc16!33 () (Set Int))
(declare-fun objAlloc30!32 () (Set Int))
(declare-fun objAlloc45!29 () (Set Int))
(declare-fun objAlloc60!25 () (Set Int))
(declare-fun objAlloc74!21 () (Set Int))
(declare-fun objct!28 () (Set Int))
(declare-fun s142!30 () (Set Int))
(declare-fun s241!31 () (Set Int))

(assert
(and (distinct l1!16 nul!17)
     (distinct l1!16 ths!18)
     (distinct ths!18 nul!17)
     (member ths!18 list!19)
     (member ths!18 objAlloc!20)
     (member l1!16 list!19)
     (member l1!16 objAlloc!20)
     (= objAlloc74!21 objAlloc!20)
     (= listContent73!22 listContent!23)
     (subset objAlloc!20 objAlloc74!21)
     (not tmp171!24)
     (= objAlloc60!25 objAlloc74!21)
     (= listContent59!26 listContent73!22)
     (subset objAlloc74!21 objAlloc60!25)
     (member tmp357!27 objct!28)
     (member tmp357!27 objAlloc60!25)
     (= objAlloc45!29 objAlloc60!25)
     (subset objAlloc60!25 objAlloc45!29)
     (= objAlloc45!29 objAlloc!20)
     (member tmp357!27 s142!30)
     (= s241!31 (setminus s142!30 (singleton tmp357!27)))
     (<= (card (setminus objAlloc30!32 objAlloc45!29)) 1)
     (subset objAlloc45!29 objAlloc30!32)
     (<= (card (setminus objAlloc30!32 objAlloc!20)) 1)
     (subset objAlloc30!32 objAlloc16!33)
     (<= (card (setminus objAlloc16!33 objAlloc30!32))
         (card s241!31))
     (> (card (setminus objAlloc16!33 objAlloc!20))
        (card s142!30)))
)
(check-sat)
